molecule {
0 1
C                    -1.959999996879    21.549999992795   -27.329999990071
C                    -1.289999999026    22.409999988617   -28.199999985230
C                    -1.959999996879    22.949999989810   -29.289999986951
C                    -3.299999997878    22.619999990551   -29.539999986229
C                    -3.969999995731    21.759999989436   -28.649999987106
C                    -3.289999998541    21.229999992872   -27.559999985385
Cl                   -5.639999995988    21.349999990197   -28.919999985056
C                    -4.039999996375    23.149999992407   -30.709999987930
O                    -4.229999999637    22.419999987954   -31.669999987697
N                    -4.509999996923    24.409999988133   -30.649999986621
C                    -5.289999998057    25.109999989286   -31.579999988380
C                    -5.959999995910    24.549999989422   -32.679999984145
C                    -6.779999994389    25.359999988564   -33.459999985279
N                    -6.919999995678    26.649999987590   -33.179999982701
C                    -6.299999999797    27.229999986127   -32.159999986917
C                    -5.509999999327    26.459999989621   -31.309999985138
N                    -6.539999999738    28.579999986461   -31.879999984339
C                    -5.709999996632    29.449999986912   -31.229999985158
O                    -4.620000000204    29.119999987653   -30.809999986582
C                    -6.229999999152    30.849999983927   -31.029999987852
C                    -5.579999999971    31.749999987678   -29.979999988768
C                    -5.359999998701    32.019999985628   -31.469999985100
F                    -4.109999997020    31.719999984377   -32.009999986292
Cl                   -1.110000000393    24.049999990866   -30.329999986699
H                    -7.309999996245    30.939999988535   -31.159999984513
H                    -5.859999997257    32.899999985415   -31.879999984339
H                    -1.439999999651    21.129999988928   -26.479999988293
H                    -0.259999998614    22.659999987895   -28.019999986597
H                    -3.809999995770    20.559999989727   -26.889999987532
H                    -4.319999998953    24.979999987333   -29.839999987479
H                    -5.839999998585    23.499999990338   -32.909999984751
H                    -7.309999996245    24.939999989989   -34.299999982429
H                    -5.059999997451    26.909999986204   -30.429999985351
H                    -7.399999995561    29.009999989664   -32.179999985589
H                    -6.349999996477    32.199999984261   -29.359999987595
H                    -4.919999996162    31.149999985177   -29.349999988259
units angstrom
}

set basis 6-31g*
gradient('b3lyp')
