molecule {
0 1
C                    -1.959999996879    21.549999992795   -27.329999990071
C                    -1.289999999026    22.409999988617   -28.199999985230
C                    -1.959999996879    22.949999989810   -29.289999986951
C                    -3.299999997878    22.619999990551   -29.539999986229
C                    -3.969999995731    21.759999989436   -28.649999987106
C                    -3.289999998541    21.229999992872   -27.559999985385
Cl                   -5.639999995988    21.349999990197   -28.919999985056
C                    -4.039999996375    23.149999992407   -30.709999987930
O                    -4.229999999637    22.419999987954   -31.669999987697
N                    -4.509999996923    24.409999988133   -30.649999986621
C                    -5.289999998057    25.109999989286   -31.579999988380
C                    -5.959999995910    24.549999989422   -32.679999984145
C                    -6.779999994389    25.359999988564   -33.459999985279
N                    -6.919999995678    26.649999987590   -33.179999982701
C                    -6.299999999797    27.229999986127   -32.159999986917
C                    -5.509999999327    26.459999989621   -31.309999985138
N                    -6.539999999738    28.579999986461   -31.879999984339
C                    -5.709999996632    29.449999986912   -31.229999985158
O                    -4.620000000204    29.119999987653   -30.809999986582
Cl                   -1.110000000393    24.049999990866   -30.329999986699
H                    -1.439999999651    21.129999988928   -26.479999988293
H                    -0.259999998614    22.659999987895   -28.019999986597
H                    -3.809999995770    20.559999989727   -26.889999987532
H                    -4.319999998953    24.979999987333   -29.839999987479
H                    -5.839999998585    23.499999990338   -32.909999984751
H                    -7.309999996245    24.939999989989   -34.299999982429
H                    -5.059999997451    26.909999986204   -30.429999985351
H                    -7.399999995561    29.009999989664   -32.179999985589
H                    -7.279999998236    30.969999986544   -31.149999985177
C                    -6.179999997180    30.879999987227   -31.019999988516
C                    -5.779999997277    31.329999983810   -29.599999987537
C                    -4.399999998934    31.979999988283   -29.799999984843
C                    -4.589999996904    32.749999984789   -31.099999988497
C                    -5.420000000010    31.809999983694   -31.979999988283
H                    -5.759999998605    30.489999986660   -28.869999988375
H                    -6.499999997102    32.099999985608   -29.229999985642
H                    -4.099999997684    32.629999987464   -28.939999989020
H                    -3.629999997136    31.189999987813   -29.929999986796
H                    -5.159999996104    33.689999985885   -30.899999985899
H                    -3.609999998464    33.039999986704   -31.569999983752
H                    -4.749999996865    31.209999986485   -32.639999986800
H                    -6.109999996535    32.389999987523   -32.649999986137
units angstrom
}

set basis 6-31g*
gradient('b3lyp')
