molecule {
0 1
C                    -1.959999996879    21.549999992795   -27.329999990071
C                    -1.289999999026    22.409999988617   -28.199999985230
C                    -1.959999996879    22.949999989810   -29.289999986951
C                    -3.299999997878    22.619999990551   -29.539999986229
C                    -3.969999995731    21.759999989436   -28.649999987106
C                    -3.289999998541    21.229999992872   -27.559999985385
Cl                   -5.639999995988    21.349999990197   -28.919999985056
C                    -4.039999996375    23.149999992407   -30.709999987930
O                    -4.229999999637    22.419999987954   -31.669999987697
N                    -4.509999996923    24.409999988133   -30.649999986621
C                    -5.289999998057    25.109999989286   -31.579999988380
C                    -5.959999995910    24.549999989422   -32.679999984145
C                    -6.779999994389    25.359999988564   -33.459999985279
N                    -6.919999995678    26.649999987590   -33.179999982701
C                    -6.299999999797    27.229999986127   -32.159999986917
C                    -5.509999999327    26.459999989621   -31.309999985138
N                    -6.539999999738    28.579999986461   -31.879999984339
C                    -5.709999996632    29.449999986912   -31.229999985158
O                    -4.620000000204    29.119999987653   -30.809999986582
Cl                   -1.110000000393    24.049999990866   -30.329999986699
H                    -1.439999999651    21.129999988928   -26.479999988293
H                    -0.259999998614    22.659999987895   -28.019999986597
H                    -3.809999995770    20.559999989727   -26.889999987532
H                    -4.319999998953    24.979999987333   -29.839999987479
H                    -5.839999998585    23.499999990338   -32.909999984751
H                    -7.309999996245    24.939999989989   -34.299999982429
H                    -5.059999997451    26.909999986204   -30.429999985351
H                    -7.399999995561    29.009999989664   -32.179999985589
C                    -5.189999999404    31.849999986330   -30.679999984629
H                    -5.589999999307    32.859999988070   -30.819999985918
H                    -4.909999996826    31.719999984377   -29.629999985545
C                    -3.980000000359    31.669999987697   -31.549999985080
N                    -6.159999998508    30.829999985255   -31.019999988516
H                    -7.129999997611    31.059999985860   -31.119999987169
H                    -3.580000000456    30.669999985293   -31.409999983791
H                    -4.259999997645    31.809999983694   -32.589999984828
H                    -3.219999997897    32.409999986195   -31.279999987130
units angstrom
}

set basis 6-31g*
gradient('b3lyp')
